fcc:                                    
   3.50000000000000     
     0.4957871571304797    0.4957871571304797    0.0000000000000000
     0.0000000000000000    0.4957871571304797    0.4957871571304797
     0.4957871571304797    0.0000000000000000    0.4957871571304797
   Si
     1
Direct
  0.0000000000000000  0.0000000000000000  0.0000000000000000
 
  0.00000000E+00  0.00000000E+00  0.00000000E+00
