general:
System = fcc Si
# ISTART determines whether or not to read the WAVECAR file (0 begin from scratch). 
ISTART = 0
# determines how VASP constructs the initial charge density (2 Take superposition of atomic charge densities).
ICHARG = 2
ENCUT  = 240
ISMEAR = 0
SIGMA = 0.1
NSW    =  5 
IBRION =  2
ISIF   =  2

