fcc:
   3.5
    0.4957871571304797    0.4957871571304797    0.0000000000000000
     0.0000000000000000    0.4957871571304797    0.4957871571304797
     0.4957871571304797   -0.0000000000000000    0.4957871571304797
   1
cartesian
0 0 0
